50
150
100
98
98
96
95
95
94
94
94
91
90
90
89
86
85
85
85
84
78
78
77
76
75
73
72
72
70
70
69
69
68
68
66
60
59
55
50
50
48
48
47
47
44
43
42
40
39
39
37
35
